\ENCODING=ISO-8859-1
\Problem name: ilog.cplex

Minimize
 obj1: 109892 x1 + 98894 x2 + 93223 x3 + 93161 x4 + 90226 x5 + 99254 x6
       + 92342 x7 + 107426 x8 + 91556 x9 + 101578 x10 + 93799 x11 + 107767 x12
       + 105016 x13 + 93732 x14 + 90418 x15 + 105390 x16 + 91313 x17
       + 90214 x18 + 95279 x19 + 96261 x20 + 94738 x21 + 94109 x22 + 96719 x23
       + 104940 x24 + 108910 x25 + 106792 x26 + 100064 x27 + 91014 x28
       + 108148 x29 + 98252 x30 + 99179 x31 + 96798 x32 + 100662 x33
       + 92639 x34 + 93441 x35 + 99497 x36 + 107509 x37 + 96023 x38 + 93894 x39
       + 96250 x40 + 104777 x41 + 96304 x42 + 106123 x43 + 96214 x44
       + 105497 x45 + 98873 x46 + 96740 x47 + 100326 x48 + 102518 x49
       + 105818 x50 + 105449 x51 + 96398 x52 + 103904 x53 + 101359 x54
       + 95255 x55 + 104892 x56 + 108370 x57 + 91681 x58 + 99680 x59
       + 99019 x60 + 91730 x61 + 107454 x62 + 91882 x63 + 104860 x64
       + 91712 x65 + 90140 x66 + 107246 x67 + 101433 x68 + 100698 x69
       + 103357 x70 + 95296 x71 + 108696 x72 + 95176 x73 + 109681 x74
       + 107504 x75 + 107020 x76 + 107024 x77 + 104609 x78 + 104771 x79
       + 90890 x80 + 109643 x81 + 104309 x82 + 98882 x83 + 90921 x84
       + 108836 x85 + 102981 x86 + 106250 x87 + 104406 x88 + 90983 x89
       + 104075 x90 + 109633 x91 + 92808 x92 + 94990 x93 + 101841 x94
       + 95244 x95 + 107096 x96 + 109030 x97 + 107494 x98 + 95044 x99
       + 100023 x100 + 108287 x101 + 97743 x102 + 96988 x103 + 98159 x104
       + 105702 x105 + 92522 x106 + 109617 x107 + 95927 x108 + 104143 x109
       + 103460 x110 + 101609 x111 + 98879 x112 + 95493 x113 + 94953 x114
       + 101801 x115 + 104130 x116 + 109797 x117 + 105677 x118 + 100630 x119
       + 102087 x120 + 95561 x121 + 94145 x122 + 95530 x123 + 96146 x124
       + 99819 x125 + 100521 x126 + 97384 x127 + 104426 x128 + 90318 x129
       + 103259 x130 + 95198 x131 + 98993 x132 + 103602 x133 + 91895 x134
       + 96751 x135 + 101374 x136 + 91258 x137 + 101680 x138 + 108762 x139
       + 97238 x140 + 96836 x141 + 97522 x142 + 102268 x143 + 107515 x144
       + 91284 x145 + 104567 x146 + 90520 x147 + 101327 x148 + 103722 x149
       + 95776 x150 + 93947 x151 + 109263 x152 + 101273 x153 + 90771 x154
       + 108973 x155 + 97204 x156 + 104181 x157 + 104814 x158 + 105295 x159
       + 93307 x160 + 90605 x161 + 91914 x162 + 109669 x163 + 103746 x164
       + 109229 x165 + 91877 x166 + 93366 x167 + 106382 x168 + 97244 x169
       + 97559 x170 + 105132 x171 + 95831 x172 + 96253 x173 + 105587 x174
       + 101855 x175 + 108212 x176 + 109323 x177 + 101540 x178 + 105057 x179
       + 99368 x180 + 106466 x181 + 105190 x182 + 99532 x183 + 104981 x184
       + 109620 x185 + 109244 x186 + 94800 x187 + 108627 x188 + 107532 x189
       + 103862 x190 + 92944 x191 + 96646 x192 + 109152 x193 + 102044 x194
       + 93738 x195 + 107116 x196 + 101961 x197 + 102845 x198 + 99206 x199
       + 108231 x200 + 106721 x201 + 101616 x202 + 103041 x203 + 105222 x204
       + 108395 x205 + 105272 x206 + 93538 x207 + 107685 x208 + 103445 x209
       + 94695 x210 + 98222 x211 + 102204 x212 + 104806 x213 + 103312 x214
       + 92263 x215 + 107341 x216 + 97581 x217 + 103401 x218 + 107341 x219
       + 105930 x220 + 100888 x221 + 109802 x222 + 92763 x223 + 93027 x224
       + 104228 x225 + 104521 x226 + 96497 x227 + 106996 x228 + 90414 x229
       + 95054 x230 + 90137 x231 + 105873 x232 + 91295 x233 + 104332 x234
       + 98933 x235 + 91521 x236 + 107394 x237 + 90797 x238 + 95651 x239
       + 90019 x240 + 108319 x241 + 94865 x242 + 108201 x243 + 107055 x244
       + 104423 x245 + 107651 x246 + 90805 x247 + 97975 x248 + 91144 x249
       + 100131 x250 + 101930 x251 + 105843 x252 + 101980 x253 + 109748 x254
       + 92279 x255 + 96060 x256 + 101726 x257 + 95294 x258 + 97198 x259
       + 101534 x260 + 104138 x261 + 94892 x262 + 101658 x263 + 105218 x264
       + 104289 x265 + 106893 x266 + 101754 x267 + 108062 x268 + 104247 x269
       + 106676 x270 + 90140 x271 + 108348 x272 + 107253 x273 + 103486 x274
       + 109773 x275 + 102330 x276 + 97799 x277 + 103166 x278 + 92795 x279
       + 100628 x280 + 92837 x281 + 95000 x282 + 109589 x283 + 100037 x284
       + 102807 x285 + 103888 x286 + 96763 x287 + 96175 x288 + 100250 x289
       + 102676 x290 + 92236 x291 + 108833 x292 + 98491 x293 + 103694 x294
       + 100621 x295 + 98965 x296 + 93184 x297 + 103444 x298 + 102736 x299
       + 103883 x300 + 105571 x301 + 107303 x302 + 97545 x303 + 101105 x304
       + 95929 x305 + 95852 x306 + 103627 x307 + 94320 x308 + 92313 x309
       + 98443 x310 + 93241 x311 + 105014 x312 + 106924 x313 + 105809 x314
       + 92872 x315 + 92914 x316 + 104388 x317 + 97216 x318 + 107428 x319
       + 91063 x320 + 93301 x321 + 109890 x322 + 106621 x323 + 106948 x324
       + 109562 x325 + 100725 x326 + 105989 x327 + 96631 x328 + 101985 x329
       + 99215 x330 + 108361 x331 + 104633 x332 + 104007 x333 + 97090 x334
       + 92717 x335 + 109237 x336 + 109194 x337 + 92391 x338 + 109098 x339
       + 95366 x340 + 102845 x341 + 103499 x342 + 100623 x343 + 95380 x344
       + 97127 x345 + 92145 x346 + 106612 x347 + 91850 x348 + 93002 x349
       + 103467 x350 + 104475 x351 + 105810 x352 + 108622 x353 + 105898 x354
       + 102228 x355 + 98991 x356 + 90926 x357 + 94029 x358 + 98380 x359
       + 99166 x360 + 94036 x361 + 92758 x362 + 98553 x363 + 107247 x364
       + 90964 x365 + 96044 x366 + 90267 x367 + 109597 x368 + 107383 x369
       + 109543 x370 + 105887 x371 + 105960 x372 + 99857 x373 + 100658 x374
       + 98702 x375 + 99358 x376 + 98535 x377 + 105036 x378 + 101529 x379
       + 105076 x380 + 108142 x381 + 92476 x382 + 106804 x383 + 90596 x384
       + 106652 x385 + 98705 x386 + 101549 x387 + 106896 x388 + 98463 x389
       + 101317 x390 + 96463 x391 + 109743 x392 + 100133 x393 + 101496 x394
       + 104930 x395 + 100722 x396 + 93648 x397 + 97067 x398 + 109980 x399
       + 99494 x400 + 94706 x401 + 96939 x402 + 105067 x403 + 91127 x404
       + 91654 x405 + 92240 x406 + 107950 x407 + 95337 x408 + 94465 x409
       + 105176 x410 + 106103 x411 + 98086 x412 + 92564 x413 + 103123 x414
       + 96727 x415 + 90229 x416 + 95309 x417 + 92491 x418 + 94815 x419
       + 92767 x420 + 93724 x421 + 95245 x422 + 93915 x423 + 103751 x424
       + 97835 x425 + 101010 x426 + 98590 x427 + 103300 x428 + 96900 x429
       + 100987 x430 + 101485 x431 + 106321 x432 + 106085 x433 + 105077 x434
       + 101645 x435 + 102812 x436 + 99404 x437 + 105331 x438 + 95738 x439
       + 109546 x440 + 96231 x441 + 104716 x442 + 100984 x443 + 99735 x444
       + 99950 x445 + 94743 x446 + 103023 x447 + 95169 x448 + 109687 x449
       + 94093 x450 + 94847 x451 + 100358 x452 + 96585 x453 + 91608 x454
       + 106190 x455 + 104825 x456 + 97161 x457 + 103935 x458 + 96773 x459
       + 91872 x460 + 108068 x461 + 100616 x462 + 101258 x463 + 109986 x464
       + 108896 x465 + 107575 x466 + 109024 x467 + 106524 x468 + 92680 x469
       + 93707 x470 + 97623 x471 + 92365 x472 + 107376 x473 + 94677 x474
       + 95222 x475 + 100959 x476 + 105788 x477 + 93060 x478 + 104395 x479
       + 105504 x480 + 103968 x481 + 102510 x482 + 96549 x483 + 90436 x484
       + 93230 x485 + 104922 x486 + 96273 x487 + 106681 x488 + 90837 x489
       + 96786 x490 + 95150 x491 + 90671 x492 + 105697 x493 + 90743 x494
       + 96794 x495 + 105238 x496 + 107499 x497 + 93202 x498 + 96718 x499
       + 96271 x500 + 98704 x501 + 90792 x502 + 95267 x503 + 95330 x504
       + 92701 x505 + 92884 x506 + 95622 x507 + 91264 x508 + 107004 x509
       + 93916 x510 + 94269 x511 + 104777 x512 + 91376 x513 + 99797 x514
       + 92661 x515 + 103160 x516 + 107297 x517 + 93759 x518 + 95638 x519
       + 96374 x520 + 97439 x521 + 98765 x522 + 94736 x523 + 100176 x524
       + 91622 x525 + 105954 x526 + 102625 x527 + 97192 x528 + 109191 x529
       + 101562 x530 + 108718 x531 + 92624 x532 + 96832 x533 + 98430 x534
       + 105346 x535 + 107702 x536 + 105551 x537 + 102376 x538 + 108970 x539
       + 101054 x540 + 95829 x541 + 96318 x542 + 108998 x543 + 102978 x544
       + 98725 x545 + 101604 x546 + 106497 x547 + 109209 x548 + 105983 x549
       + 104644 x550 + 101045 x551 + 104539 x552 + 100974 x553 + 98700 x554
       + 107013 x555 + 94256 x556 + 98166 x557 + 104956 x558 + 91558 x559
       + 108965 x560 + 99077 x561 + 104628 x562 + 101187 x563 + 98112 x564
       + 97227 x565 + 104503 x566 + 93297 x567 + 109749 x568 + 101169 x569
       + 95113 x570 + 99249 x571 + 99273 x572 + 97341 x573 + 101737 x574
       + 96065 x575 + 101152 x576 + 107801 x577 + 94957 x578 + 104922 x579
       + 104532 x580 + 91795 x581 + 99747 x582 + 106378 x583 + 96167 x584
       + 94719 x585 + 99882 x586 + 104590 x587 + 92223 x588 + 103148 x589
       + 97920 x590 + 105833 x591 + 94300 x592 + 100440 x593 + 100078 x594
       + 100178 x595 + 94407 x596 + 93862 x597 + 90059 x598 + 109471 x599
       - 61907 x600 + 418998 x601 + 375081 x602 + 426288 x603 + 397812 x604
       + 377974 x605 + 404026 x606 + 417792 x607 + 431799 x608 + 430559 x609
       + 418545 x610 + 439989 x611 + 391904 x612 + 404084 x613 + 414215 x614
       + 384414 x615 + 411885 x616 + 370982 x617 + 391586 x618 + 413195 x619
       + 381384 x620 + 367402 x621 + 423568 x622 + 393766 x623 + 427896 x624
       + 415041 x625 + 363495 x626 + 385904 x627 + 433162 x628 + 416483 x629
       + 397026 x630 + 393914 x631 + 409401 x632 + 421225 x633 + 432393 x634
       + 377441 x635 + 415848 x636 + 414094 x637 + 382312 x638 + 382636 x639
       + 378653 x640 + 439645 x641 + 397228 x642 + 411074 x643 + 367277 x644
       + 385631 x645 + 383359 x646 + 367040 x647 + 418094 x648 + 425569 x649
       + 400367 x650 + 434497 x651 + 360984 x652 + 364880 x653 + 422291 x654
       + 413264 x655 + 377288 x656 + 387030 x657 + 421705 x658 + 409610 x659
       + 278995 x660
Subject To
 c1:   - x2 - x3 - x9 + x17 - x18 + x22 + x30 + x38 - x48 - x49 + x50  = 0
 c2:   - x62 - x63 - x69 + x77 - x78 + x82 + x90 + x98 - x108 - x109 + x110
        = 0
 c3:   - x122 - x123 - x129 + x137 - x138 + x142 + x150 + x158 - x168 - x169
       + x170  = 0
 c4:   - x182 - x183 - x189 + x197 - x198 + x202 + x210 + x218 - x228 - x229
       + x230  = 0
 c5:   - x242 - x243 - x249 + x257 - x258 + x262 + x270 + x278 - x288 - x289
       + x290  = 0
 c6:   - x302 - x303 - x309 + x317 - x318 + x322 + x330 + x338 - x348 - x349
       + x350  = 0
 c7:   - x362 - x363 - x369 + x377 - x378 + x382 + x390 + x398 - x408 - x409
       + x410  = 0
 c8:   - x422 - x423 - x429 + x437 - x438 + x442 + x450 + x458 - x468 - x469
       + x470  = 0
 c9:   - x482 - x483 - x489 + x497 - x498 + x502 + x510 + x518 - x528 - x529
       + x530  = 0
 c10:  - x542 - x543 - x549 + x557 - x558 + x562 + x570 + x578 - x588 - x589
       + x590  = -1
 c11:  x8 + x9 + x12 - x19 + x25 - x27 - x35 + x36 + x42 + x44 + x52 - x55
       - x59  = 0
 c12:  x68 + x69 + x72 - x79 + x85 - x87 - x95 + x96 + x102 + x104 + x112
       - x115 - x119  = 0
 c13:  x128 + x129 + x132 - x139 + x145 - x147 - x155 + x156 + x162 + x164
       + x172 - x175 - x179  = 0
 c14:  x188 + x189 + x192 - x199 + x205 - x207 - x215 + x216 + x222 + x224
       + x232 - x235 - x239  = -1
 c15:  x248 + x249 + x252 - x259 + x265 - x267 - x275 + x276 + x282 + x284
       + x292 - x295 - x299  = 1
 c16:  x308 + x309 + x312 - x319 + x325 - x327 - x335 + x336 + x342 + x344
       + x352 - x355 - x359  = 0
 c17:  x368 + x369 + x372 - x379 + x385 - x387 - x395 + x396 + x402 + x404
       + x412 - x415 - x419  = 0
 c18:  x428 + x429 + x432 - x439 + x445 - x447 - x455 + x456 + x462 + x464
       + x472 - x475 - x479  = 0
 c19:  x488 + x489 + x492 - x499 + x505 - x507 - x515 + x516 + x522 + x524
       + x532 - x535 - x539  = 0
 c20:  x548 + x549 + x552 - x559 + x565 - x567 - x575 + x576 + x582 + x584
       + x592 - x595 - x599  = 0
 c21:  - x4 - x6 - x16 + x19 + x20 + x40 + x41 + x43 - x44 + x48 - x51  = 0
 c22:  - x64 - x66 - x76 + x79 + x80 + x100 + x101 + x103 - x104 + x108 - x111
        = 0
 c23:  - x124 - x126 - x136 + x139 + x140 + x160 + x161 + x163 - x164 + x168
       - x171  = 0
 c24:  - x184 - x186 - x196 + x199 + x200 + x220 + x221 + x223 - x224 + x228
       - x231  = 0
 c25:  - x244 - x246 - x256 + x259 + x260 + x280 + x281 + x283 - x284 + x288
       - x291  = -1
 c26:  - x304 - x306 - x316 + x319 + x320 + x340 + x341 + x343 - x344 + x348
       - x351  = 0
 c27:  - x364 - x366 - x376 + x379 + x380 + x400 + x401 + x403 - x404 + x408
       - x411  = 0
 c28:  - x424 - x426 - x436 + x439 + x440 + x460 + x461 + x463 - x464 + x468
       - x471  = 1
 c29:  - x484 - x486 - x496 + x499 + x500 + x520 + x521 + x523 - x524 + x528
       - x531  = 1
 c30:  - x544 - x546 - x556 + x559 + x560 + x580 + x581 + x583 - x584 + x588
       - x591  = 0
 c31:  - x17 - x20 + x26 + x27 - x29 - x39 + x47 - x53 + x56 - x57 + x58 - x60
        = 0
 c32:  - x77 - x80 + x86 + x87 - x89 - x99 + x107 - x113 + x116 - x117 + x118
       - x120  = 0
 c33:  - x137 - x140 + x146 + x147 - x149 - x159 + x167 - x173 + x176 - x177
       + x178 - x180  = 0
 c34:  - x197 - x200 + x206 + x207 - x209 - x219 + x227 - x233 + x236 - x237
       + x238 - x240  = 0
 c35:  - x257 - x260 + x266 + x267 - x269 - x279 + x287 - x293 + x296 - x297
       + x298 - x300  = 0
 c36:  - x317 - x320 + x326 + x327 - x329 - x339 + x347 - x353 + x356 - x357
       + x358 - x360  = 0
 c37:  - x377 - x380 + x386 + x387 - x389 - x399 + x407 - x413 + x416 - x417
       + x418 - x420  = 0
 c38:  - x437 - x440 + x446 + x447 - x449 - x459 + x467 - x473 + x476 - x477
       + x478 - x480  = 0
 c39:  - x497 - x500 + x506 + x507 - x509 - x519 + x527 - x533 + x536 - x537
       + x538 - x540  = -1
 c40:  - x557 - x560 + x566 + x567 - x569 - x579 + x587 - x593 + x596 - x597
       + x598 - x600  = 0
 c41:  x2 - x8 - x14 + x21 - x28 + x29 - x45 + x46  = 0
 c42:  x62 - x68 - x74 + x81 - x88 + x89 - x105 + x106  = 0
 c43:  x122 - x128 - x134 + x141 - x148 + x149 - x165 + x166  = 0
 c44:  x182 - x188 - x194 + x201 - x208 + x209 - x225 + x226  = 1
 c45:  x242 - x248 - x254 + x261 - x268 + x269 - x285 + x286  = 0
 c46:  x302 - x308 - x314 + x321 - x328 + x329 - x345 + x346  = 1
 c47:  x362 - x368 - x374 + x381 - x388 + x389 - x405 + x406  = 0
 c48:  x422 - x428 - x434 + x441 - x448 + x449 - x465 + x466  = -1
 c49:  x482 - x488 - x494 + x501 - x508 + x509 - x525 + x526  = 0
 c50:  x542 - x548 - x554 + x561 - x568 + x569 - x585 + x586  = 1
 c51:  - x1 + x4 + x5 - x7 - x12 + x15 - x21 - x24 - x30 + x33 + x39 - x43
       + x49 - x58 + x59  = 0
 c52:  - x61 + x64 + x65 - x67 - x72 + x75 - x81 - x84 - x90 + x93 + x99 - x103
       + x109 - x118 + x119  = 0
 c53:  - x121 + x124 + x125 - x127 - x132 + x135 - x141 - x144 - x150 + x153
       + x159 - x163 + x169 - x178 + x179  = -1
 c54:  - x181 + x184 + x185 - x187 - x192 + x195 - x201 - x204 - x210 + x213
       + x219 - x223 + x229 - x238 + x239  = 0
 c55:  - x241 + x244 + x245 - x247 - x252 + x255 - x261 - x264 - x270 + x273
       + x279 - x283 + x289 - x298 + x299  = 0
 c56:  - x301 + x304 + x305 - x307 - x312 + x315 - x321 - x324 - x330 + x333
       + x339 - x343 + x349 - x358 + x359  = 0
 c57:  - x361 + x364 + x365 - x367 - x372 + x375 - x381 - x384 - x390 + x393
       + x399 - x403 + x409 - x418 + x419  = -1
 c58:  - x421 + x424 + x425 - x427 - x432 + x435 - x441 - x444 - x450 + x453
       + x459 - x463 + x469 - x478 + x479  = 0
 c59:  - x481 + x484 + x485 - x487 - x492 + x495 - x501 - x504 - x510 + x513
       + x519 - x523 + x529 - x538 + x539  = 0
 c60:  - x541 + x544 + x545 - x547 - x552 + x555 - x561 - x564 - x570 + x573
       + x579 - x583 + x589 - x598 + x599  = 0
 c61:  x7 + x10 - x11 - x15 + x16 - x23 + x28 + x31 + x35 - x37 - x42 - x47
       + x60  = -1
 c62:  x67 + x70 - x71 - x75 + x76 - x83 + x88 + x91 + x95 - x97 - x102 - x107
       + x120  = 1
 c63:  x127 + x130 - x131 - x135 + x136 - x143 + x148 + x151 + x155 - x157
       - x162 - x167 + x180  = 0
 c64:  x187 + x190 - x191 - x195 + x196 - x203 + x208 + x211 + x215 - x217
       - x222 - x227 + x240  = 0
 c65:  x247 + x250 - x251 - x255 + x256 - x263 + x268 + x271 + x275 - x277
       - x282 - x287 + x300  = 0
 c66:  x307 + x310 - x311 - x315 + x316 - x323 + x328 + x331 + x335 - x337
       - x342 - x347 + x360  = 0
 c67:  x367 + x370 - x371 - x375 + x376 - x383 + x388 + x391 + x395 - x397
       - x402 - x407 + x420  = 1
 c68:  x427 + x430 - x431 - x435 + x436 - x443 + x448 + x451 + x455 - x457
       - x462 - x467 + x480  = 0
 c69:  x487 + x490 - x491 - x495 + x496 - x503 + x508 + x511 + x515 - x517
       - x522 - x527 + x540  = 0
 c70:  x547 + x550 - x551 - x555 + x556 - x563 + x568 + x571 + x575 - x577
       - x582 - x587 + x600  = 0
 c71:  - x13 - x22 + x23 - x25 - x26 + x34 + x45 - x46 + x53 + x54  = 0
 c72:  - x73 - x82 + x83 - x85 - x86 + x94 + x105 - x106 + x113 + x114  = 0
 c73:  - x133 - x142 + x143 - x145 - x146 + x154 + x165 - x166 + x173 + x174
        = 0
 c74:  - x193 - x202 + x203 - x205 - x206 + x214 + x225 - x226 + x233 + x234
        = 0
 c75:  - x253 - x262 + x263 - x265 - x266 + x274 + x285 - x286 + x293 + x294
        = 0
 c76:  - x313 - x322 + x323 - x325 - x326 + x334 + x345 - x346 + x353 + x354
        = 0
 c77:  - x373 - x382 + x383 - x385 - x386 + x394 + x405 - x406 + x413 + x414
        = 0
 c78:  - x433 - x442 + x443 - x445 - x446 + x454 + x465 - x466 + x473 + x474
        = 0
 c79:  - x493 - x502 + x503 - x505 - x506 + x514 + x525 - x526 + x533 + x534
        = 0
 c80:  - x553 - x562 + x563 - x565 - x566 + x574 + x585 - x586 + x593 + x594
        = 0
 c81:  x3 + x6 - x10 + x11 + x14 + x24 + x32 - x33 - x34 - x38 - x41 - x52  = 0
 c82:  x63 + x66 - x70 + x71 + x74 + x84 + x92 - x93 - x94 - x98 - x101 - x112
        = -1
 c83:  x123 + x126 - x130 + x131 + x134 + x144 + x152 - x153 - x154 - x158
       - x161 - x172  = 0
 c84:  x183 + x186 - x190 + x191 + x194 + x204 + x212 - x213 - x214 - x218
       - x221 - x232  = 0
 c85:  x243 + x246 - x250 + x251 + x254 + x264 + x272 - x273 - x274 - x278
       - x281 - x292  = 0
 c86:  x303 + x306 - x310 + x311 + x314 + x324 + x332 - x333 - x334 - x338
       - x341 - x352  = 0
 c87:  x363 + x366 - x370 + x371 + x374 + x384 + x392 - x393 - x394 - x398
       - x401 - x412  = 0
 c88:  x423 + x426 - x430 + x431 + x434 + x444 + x452 - x453 - x454 - x458
       - x461 - x472  = 0
 c89:  x483 + x486 - x490 + x491 + x494 + x504 + x512 - x513 - x514 - x518
       - x521 - x532  = 0
 c90:  x543 + x546 - x550 + x551 + x554 + x564 + x572 - x573 - x574 - x578
       - x581 - x592  = 0
 c91:  x1 - x5 + x13 + x18 - x31 - x32 - x36 + x37 - x40 - x50 + x51 - x54
       + x55 - x56 + x57  = 1
 c92:  x61 - x65 + x73 + x78 - x91 - x92 - x96 + x97 - x100 - x110 + x111
       - x114 + x115 - x116 + x117  = 0
 c93:  x121 - x125 + x133 + x138 - x151 - x152 - x156 + x157 - x160 - x170
       + x171 - x174 + x175 - x176 + x177  = 1
 c94:  x181 - x185 + x193 + x198 - x211 - x212 - x216 + x217 - x220 - x230
       + x231 - x234 + x235 - x236 + x237  = 0
 c95:  x241 - x245 + x253 + x258 - x271 - x272 - x276 + x277 - x280 - x290
       + x291 - x294 + x295 - x296 + x297  = 0
 c96:  x301 - x305 + x313 + x318 - x331 - x332 - x336 + x337 - x340 - x350
       + x351 - x354 + x355 - x356 + x357  = -1
 c97:  x361 - x365 + x373 + x378 - x391 - x392 - x396 + x397 - x400 - x410
       + x411 - x414 + x415 - x416 + x417  = 0
 c98:  x421 - x425 + x433 + x438 - x451 - x452 - x456 + x457 - x460 - x470
       + x471 - x474 + x475 - x476 + x477  = 0
 c99:  x481 - x485 + x493 + x498 - x511 - x512 - x516 + x517 - x520 - x530
       + x531 - x534 + x535 - x536 + x537  = 0
 c100: x541 - x545 + x553 + x558 - x571 - x572 - x576 + x577 - x580 - x590
       + x591 - x594 + x595 - x596 + x597  = 0
 c101: 4 x1 + 4 x61 + 4 x121 + 4 x181 + 4 x241 + 4 x301 + 4 x361 + 4 x421
       + 4 x481 + 4 x541 - 5 x601 <= 0
 c102: 4 x2 + 4 x62 + 4 x122 + 4 x182 + 4 x242 + 4 x302 + 4 x362 + 4 x422
       + 4 x482 + 4 x542 - 5 x602 <= 0
 c103: 4 x3 + 4 x63 + 4 x123 + 4 x183 + 4 x243 + 4 x303 + 4 x363 + 4 x423
       + 4 x483 + 4 x543 - 5 x603 <= 0
 c104: 4 x4 + 4 x64 + 4 x124 + 4 x184 + 4 x244 + 4 x304 + 4 x364 + 4 x424
       + 4 x484 + 4 x544 - 5 x604 <= 0
 c105: 4 x5 + 4 x65 + 4 x125 + 4 x185 + 4 x245 + 4 x305 + 4 x365 + 4 x425
       + 4 x485 + 4 x545 - 5 x605 <= 0
 c106: 4 x6 + 4 x66 + 4 x126 + 4 x186 + 4 x246 + 4 x306 + 4 x366 + 4 x426
       + 4 x486 + 4 x546 - 5 x606 <= 0
 c107: 4 x7 + 4 x67 + 4 x127 + 4 x187 + 4 x247 + 4 x307 + 4 x367 + 4 x427
       + 4 x487 + 4 x547 - 5 x607 <= 0
 c108: 4 x8 + 4 x68 + 4 x128 + 4 x188 + 4 x248 + 4 x308 + 4 x368 + 4 x428
       + 4 x488 + 4 x548 - 5 x608 <= 0
 c109: 4 x9 + 4 x69 + 4 x129 + 4 x189 + 4 x249 + 4 x309 + 4 x369 + 4 x429
       + 4 x489 + 4 x549 - 5 x609 <= 0
 c110: 4 x10 + 4 x70 + 4 x130 + 4 x190 + 4 x250 + 4 x310 + 4 x370 + 4 x430
       + 4 x490 + 4 x550 - 5 x610 <= 0
 c111: 4 x11 + 4 x71 + 4 x131 + 4 x191 + 4 x251 + 4 x311 + 4 x371 + 4 x431
       + 4 x491 + 4 x551 - 5 x611 <= 0
 c112: 4 x12 + 4 x72 + 4 x132 + 4 x192 + 4 x252 + 4 x312 + 4 x372 + 4 x432
       + 4 x492 + 4 x552 - 5 x612 <= 0
 c113: 4 x13 + 4 x73 + 4 x133 + 4 x193 + 4 x253 + 4 x313 + 4 x373 + 4 x433
       + 4 x493 + 4 x553 - 5 x613 <= 0
 c114: 4 x14 + 4 x74 + 4 x134 + 4 x194 + 4 x254 + 4 x314 + 4 x374 + 4 x434
       + 4 x494 + 4 x554 - 5 x614 <= 0
 c115: 4 x15 + 4 x75 + 4 x135 + 4 x195 + 4 x255 + 4 x315 + 4 x375 + 4 x435
       + 4 x495 + 4 x555 - 5 x615 <= 0
 c116: 4 x16 + 4 x76 + 4 x136 + 4 x196 + 4 x256 + 4 x316 + 4 x376 + 4 x436
       + 4 x496 + 4 x556 - 5 x616 <= 0
 c117: 4 x17 + 4 x77 + 4 x137 + 4 x197 + 4 x257 + 4 x317 + 4 x377 + 4 x437
       + 4 x497 + 4 x557 - 5 x617 <= 0
 c118: 4 x18 + 4 x78 + 4 x138 + 4 x198 + 4 x258 + 4 x318 + 4 x378 + 4 x438
       + 4 x498 + 4 x558 - 5 x618 <= 0
 c119: 4 x19 + 4 x79 + 4 x139 + 4 x199 + 4 x259 + 4 x319 + 4 x379 + 4 x439
       + 4 x499 + 4 x559 - 5 x619 <= 0
 c120: 4 x20 + 4 x80 + 4 x140 + 4 x200 + 4 x260 + 4 x320 + 4 x380 + 4 x440
       + 4 x500 + 4 x560 - 5 x620 <= 0
 c121: 4 x21 + 4 x81 + 4 x141 + 4 x201 + 4 x261 + 4 x321 + 4 x381 + 4 x441
       + 4 x501 + 4 x561 - 5 x621 <= 0
 c122: 4 x22 + 4 x82 + 4 x142 + 4 x202 + 4 x262 + 4 x322 + 4 x382 + 4 x442
       + 4 x502 + 4 x562 - 5 x622 <= 0
 c123: 4 x23 + 4 x83 + 4 x143 + 4 x203 + 4 x263 + 4 x323 + 4 x383 + 4 x443
       + 4 x503 + 4 x563 - 5 x623 <= 0
 c124: 4 x24 + 4 x84 + 4 x144 + 4 x204 + 4 x264 + 4 x324 + 4 x384 + 4 x444
       + 4 x504 + 4 x564 - 5 x624 <= 0
 c125: 4 x25 + 4 x85 + 4 x145 + 4 x205 + 4 x265 + 4 x325 + 4 x385 + 4 x445
       + 4 x505 + 4 x565 - 5 x625 <= 0
 c126: 4 x26 + 4 x86 + 4 x146 + 4 x206 + 4 x266 + 4 x326 + 4 x386 + 4 x446
       + 4 x506 + 4 x566 - 5 x626 <= 0
 c127: 4 x27 + 4 x87 + 4 x147 + 4 x207 + 4 x267 + 4 x327 + 4 x387 + 4 x447
       + 4 x507 + 4 x567 - 5 x627 <= 0
 c128: 4 x28 + 4 x88 + 4 x148 + 4 x208 + 4 x268 + 4 x328 + 4 x388 + 4 x448
       + 4 x508 + 4 x568 - 5 x628 <= 0
 c129: 4 x29 + 4 x89 + 4 x149 + 4 x209 + 4 x269 + 4 x329 + 4 x389 + 4 x449
       + 4 x509 + 4 x569 - 5 x629 <= 0
 c130: 4 x30 + 4 x90 + 4 x150 + 4 x210 + 4 x270 + 4 x330 + 4 x390 + 4 x450
       + 4 x510 + 4 x570 - 5 x630 <= 0
 c131: 4 x31 + 4 x91 + 4 x151 + 4 x211 + 4 x271 + 4 x331 + 4 x391 + 4 x451
       + 4 x511 + 4 x571 - 5 x631 <= 0
 c132: 4 x32 + 4 x92 + 4 x152 + 4 x212 + 4 x272 + 4 x332 + 4 x392 + 4 x452
       + 4 x512 + 4 x572 - 5 x632 <= 0
 c133: 4 x33 + 4 x93 + 4 x153 + 4 x213 + 4 x273 + 4 x333 + 4 x393 + 4 x453
       + 4 x513 + 4 x573 - 5 x633 <= 0
 c134: 4 x34 + 4 x94 + 4 x154 + 4 x214 + 4 x274 + 4 x334 + 4 x394 + 4 x454
       + 4 x514 + 4 x574 - 5 x634 <= 0
 c135: 4 x35 + 4 x95 + 4 x155 + 4 x215 + 4 x275 + 4 x335 + 4 x395 + 4 x455
       + 4 x515 + 4 x575 - 5 x635 <= 0
 c136: 4 x36 + 4 x96 + 4 x156 + 4 x216 + 4 x276 + 4 x336 + 4 x396 + 4 x456
       + 4 x516 + 4 x576 - 5 x636 <= 0
 c137: 4 x37 + 4 x97 + 4 x157 + 4 x217 + 4 x277 + 4 x337 + 4 x397 + 4 x457
       + 4 x517 + 4 x577 - 5 x637 <= 0
 c138: 4 x38 + 4 x98 + 4 x158 + 4 x218 + 4 x278 + 4 x338 + 4 x398 + 4 x458
       + 4 x518 + 4 x578 - 5 x638 <= 0
 c139: 4 x39 + 4 x99 + 4 x159 + 4 x219 + 4 x279 + 4 x339 + 4 x399 + 4 x459
       + 4 x519 + 4 x579 - 5 x639 <= 0
 c140: 4 x40 + 4 x100 + 4 x160 + 4 x220 + 4 x280 + 4 x340 + 4 x400 + 4 x460
       + 4 x520 + 4 x580 - 5 x640 <= 0
 c141: 4 x41 + 4 x101 + 4 x161 + 4 x221 + 4 x281 + 4 x341 + 4 x401 + 4 x461
       + 4 x521 + 4 x581 - 5 x641 <= 0
 c142: 4 x42 + 4 x102 + 4 x162 + 4 x222 + 4 x282 + 4 x342 + 4 x402 + 4 x462
       + 4 x522 + 4 x582 - 5 x642 <= 0
 c143: 4 x43 + 4 x103 + 4 x163 + 4 x223 + 4 x283 + 4 x343 + 4 x403 + 4 x463
       + 4 x523 + 4 x583 - 5 x643 <= 0
 c144: 4 x44 + 4 x104 + 4 x164 + 4 x224 + 4 x284 + 4 x344 + 4 x404 + 4 x464
       + 4 x524 + 4 x584 - 5 x644 <= 0
 c145: 4 x45 + 4 x105 + 4 x165 + 4 x225 + 4 x285 + 4 x345 + 4 x405 + 4 x465
       + 4 x525 + 4 x585 - 5 x645 <= 0
 c146: 4 x46 + 4 x106 + 4 x166 + 4 x226 + 4 x286 + 4 x346 + 4 x406 + 4 x466
       + 4 x526 + 4 x586 - 5 x646 <= 0
 c147: 4 x47 + 4 x107 + 4 x167 + 4 x227 + 4 x287 + 4 x347 + 4 x407 + 4 x467
       + 4 x527 + 4 x587 - 5 x647 <= 0
 c148: 4 x48 + 4 x108 + 4 x168 + 4 x228 + 4 x288 + 4 x348 + 4 x408 + 4 x468
       + 4 x528 + 4 x588 - 5 x648 <= 0
 c149: 4 x49 + 4 x109 + 4 x169 + 4 x229 + 4 x289 + 4 x349 + 4 x409 + 4 x469
       + 4 x529 + 4 x589 - 5 x649 <= 0
 c150: 4 x50 + 4 x110 + 4 x170 + 4 x230 + 4 x290 + 4 x350 + 4 x410 + 4 x470
       + 4 x530 + 4 x590 - 5 x650 <= 0
 c151: 4 x51 + 4 x111 + 4 x171 + 4 x231 + 4 x291 + 4 x351 + 4 x411 + 4 x471
       + 4 x531 + 4 x591 - 5 x651 <= 0
 c152: 4 x52 + 4 x112 + 4 x172 + 4 x232 + 4 x292 + 4 x352 + 4 x412 + 4 x472
       + 4 x532 + 4 x592 - 5 x652 <= 0
 c153: 4 x53 + 4 x113 + 4 x173 + 4 x233 + 4 x293 + 4 x353 + 4 x413 + 4 x473
       + 4 x533 + 4 x593 - 5 x653 <= 0
 c154: 4 x54 + 4 x114 + 4 x174 + 4 x234 + 4 x294 + 4 x354 + 4 x414 + 4 x474
       + 4 x534 + 4 x594 - 5 x654 <= 0
 c155: 4 x55 + 4 x115 + 4 x175 + 4 x235 + 4 x295 + 4 x355 + 4 x415 + 4 x475
       + 4 x535 + 4 x595 - 5 x655 <= 0
 c156: 4 x56 + 4 x116 + 4 x176 + 4 x236 + 4 x296 + 4 x356 + 4 x416 + 4 x476
       + 4 x536 + 4 x596 - 5 x656 <= 0
 c157: 4 x57 + 4 x117 + 4 x177 + 4 x237 + 4 x297 + 4 x357 + 4 x417 + 4 x477
       + 4 x537 + 4 x597 - 5 x657 <= 0
 c158: 4 x58 + 4 x118 + 4 x178 + 4 x238 + 4 x298 + 4 x358 + 4 x418 + 4 x478
       + 4 x538 + 4 x598 - 5 x658 <= 0
 c159: 4 x59 + 4 x119 + 4 x179 + 4 x239 + 4 x299 + 4 x359 + 4 x419 + 4 x479
       + 4 x539 + 4 x599 - 5 x659 <= 0
 c160: 4 x60 + 4 x120 + 4 x180 + 4 x240 + 4 x300 + 4 x360 + 4 x420 + 4 x480
       + 4 x540 + 4 x600 - 5 x660 <= 0
Bounds
 0 <= x1 <= 1
 0 <= x2 <= 1
 0 <= x3 <= 1
 0 <= x4 <= 1
 0 <= x5 <= 1
 0 <= x6 <= 1
 0 <= x7 <= 1
 0 <= x8 <= 1
 0 <= x9 <= 1
 0 <= x10 <= 1
 0 <= x11 <= 1
 0 <= x12 <= 1
 0 <= x13 <= 1
 0 <= x14 <= 1
 0 <= x15 <= 1
 0 <= x16 <= 1
 0 <= x17 <= 1
 0 <= x18 <= 1
 0 <= x19 <= 1
 0 <= x20 <= 1
 0 <= x21 <= 1
 0 <= x22 <= 1
 0 <= x23 <= 1
 0 <= x24 <= 1
 0 <= x25 <= 1
 0 <= x26 <= 1
 0 <= x27 <= 1
 0 <= x28 <= 1
 0 <= x29 <= 1
 0 <= x30 <= 1
 0 <= x31 <= 1
 0 <= x32 <= 1
 0 <= x33 <= 1
 0 <= x34 <= 1
 0 <= x35 <= 1
 0 <= x36 <= 1
 0 <= x37 <= 1
 0 <= x38 <= 1
 0 <= x39 <= 1
 0 <= x40 <= 1
 0 <= x41 <= 1
 0 <= x42 <= 1
 0 <= x43 <= 1
 0 <= x44 <= 1
 0 <= x45 <= 1
 0 <= x46 <= 1
 0 <= x47 <= 1
 0 <= x48 <= 1
 0 <= x49 <= 1
 0 <= x50 <= 1
 0 <= x51 <= 1
 0 <= x52 <= 1
 0 <= x53 <= 1
 0 <= x54 <= 1
 0 <= x55 <= 1
 0 <= x56 <= 1
 0 <= x57 <= 1
 0 <= x58 <= 1
 0 <= x59 <= 1
 0 <= x60 <= 1
 0 <= x61 <= 1
 0 <= x62 <= 1
 0 <= x63 <= 1
 0 <= x64 <= 1
 0 <= x65 <= 1
 0 <= x66 <= 1
 0 <= x67 <= 1
 0 <= x68 <= 1
 0 <= x69 <= 1
 0 <= x70 <= 1
 0 <= x71 <= 1
 0 <= x72 <= 1
 0 <= x73 <= 1
 0 <= x74 <= 1
 0 <= x75 <= 1
 0 <= x76 <= 1
 0 <= x77 <= 1
 0 <= x78 <= 1
 0 <= x79 <= 1
 0 <= x80 <= 1
 0 <= x81 <= 1
 0 <= x82 <= 1
 0 <= x83 <= 1
 0 <= x84 <= 1
 0 <= x85 <= 1
 0 <= x86 <= 1
 0 <= x87 <= 1
 0 <= x88 <= 1
 0 <= x89 <= 1
 0 <= x90 <= 1
 0 <= x91 <= 1
 0 <= x92 <= 1
 0 <= x93 <= 1
 0 <= x94 <= 1
 0 <= x95 <= 1
 0 <= x96 <= 1
 0 <= x97 <= 1
 0 <= x98 <= 1
 0 <= x99 <= 1
 0 <= x100 <= 1
 0 <= x101 <= 1
 0 <= x102 <= 1
 0 <= x103 <= 1
 0 <= x104 <= 1
 0 <= x105 <= 1
 0 <= x106 <= 1
 0 <= x107 <= 1
 0 <= x108 <= 1
 0 <= x109 <= 1
 0 <= x110 <= 1
 0 <= x111 <= 1
 0 <= x112 <= 1
 0 <= x113 <= 1
 0 <= x114 <= 1
 0 <= x115 <= 1
 0 <= x116 <= 1
 0 <= x117 <= 1
 0 <= x118 <= 1
 0 <= x119 <= 1
 0 <= x120 <= 1
 0 <= x121 <= 1
 0 <= x122 <= 1
 0 <= x123 <= 1
 0 <= x124 <= 1
 0 <= x125 <= 1
 0 <= x126 <= 1
 0 <= x127 <= 1
 0 <= x128 <= 1
 0 <= x129 <= 1
 0 <= x130 <= 1
 0 <= x131 <= 1
 0 <= x132 <= 1
 0 <= x133 <= 1
 0 <= x134 <= 1
 0 <= x135 <= 1
 0 <= x136 <= 1
 0 <= x137 <= 1
 0 <= x138 <= 1
 0 <= x139 <= 1
 0 <= x140 <= 1
 0 <= x141 <= 1
 0 <= x142 <= 1
 0 <= x143 <= 1
 0 <= x144 <= 1
 0 <= x145 <= 1
 0 <= x146 <= 1
 0 <= x147 <= 1
 0 <= x148 <= 1
 0 <= x149 <= 1
 0 <= x150 <= 1
 0 <= x151 <= 1
 0 <= x152 <= 1
 0 <= x153 <= 1
 0 <= x154 <= 1
 0 <= x155 <= 1
 0 <= x156 <= 1
 0 <= x157 <= 1
 0 <= x158 <= 1
 0 <= x159 <= 1
 0 <= x160 <= 1
 0 <= x161 <= 1
 0 <= x162 <= 1
 0 <= x163 <= 1
 0 <= x164 <= 1
 0 <= x165 <= 1
 0 <= x166 <= 1
 0 <= x167 <= 1
 0 <= x168 <= 1
 0 <= x169 <= 1
 0 <= x170 <= 1
 0 <= x171 <= 1
 0 <= x172 <= 1
 0 <= x173 <= 1
 0 <= x174 <= 1
 0 <= x175 <= 1
 0 <= x176 <= 1
 0 <= x177 <= 1
 0 <= x178 <= 1
 0 <= x179 <= 1
 0 <= x180 <= 1
 0 <= x181 <= 1
 0 <= x182 <= 1
 0 <= x183 <= 1
 0 <= x184 <= 1
 0 <= x185 <= 1
 0 <= x186 <= 1
 0 <= x187 <= 1
 0 <= x188 <= 1
 0 <= x189 <= 1
 0 <= x190 <= 1
 0 <= x191 <= 1
 0 <= x192 <= 1
 0 <= x193 <= 1
 0 <= x194 <= 1
 0 <= x195 <= 1
 0 <= x196 <= 1
 0 <= x197 <= 1
 0 <= x198 <= 1
 0 <= x199 <= 1
 0 <= x200 <= 1
 0 <= x201 <= 1
 0 <= x202 <= 1
 0 <= x203 <= 1
 0 <= x204 <= 1
 0 <= x205 <= 1
 0 <= x206 <= 1
 0 <= x207 <= 1
 0 <= x208 <= 1
 0 <= x209 <= 1
 0 <= x210 <= 1
 0 <= x211 <= 1
 0 <= x212 <= 1
 0 <= x213 <= 1
 0 <= x214 <= 1
 0 <= x215 <= 1
 0 <= x216 <= 1
 0 <= x217 <= 1
 0 <= x218 <= 1
 0 <= x219 <= 1
 0 <= x220 <= 1
 0 <= x221 <= 1
 0 <= x222 <= 1
 0 <= x223 <= 1
 0 <= x224 <= 1
 0 <= x225 <= 1
 0 <= x226 <= 1
 0 <= x227 <= 1
 0 <= x228 <= 1
 0 <= x229 <= 1
 0 <= x230 <= 1
 0 <= x231 <= 1
 0 <= x232 <= 1
 0 <= x233 <= 1
 0 <= x234 <= 1
 0 <= x235 <= 1
 0 <= x236 <= 1
 0 <= x237 <= 1
 0 <= x238 <= 1
 0 <= x239 <= 1
 0 <= x240 <= 1
 0 <= x241 <= 1
 0 <= x242 <= 1
 0 <= x243 <= 1
 0 <= x244 <= 1
 0 <= x245 <= 1
 0 <= x246 <= 1
 0 <= x247 <= 1
 0 <= x248 <= 1
 0 <= x249 <= 1
 0 <= x250 <= 1
 0 <= x251 <= 1
 0 <= x252 <= 1
 0 <= x253 <= 1
 0 <= x254 <= 1
 0 <= x255 <= 1
 0 <= x256 <= 1
 0 <= x257 <= 1
 0 <= x258 <= 1
 0 <= x259 <= 1
 0 <= x260 <= 1
 0 <= x261 <= 1
 0 <= x262 <= 1
 0 <= x263 <= 1
 0 <= x264 <= 1
 0 <= x265 <= 1
 0 <= x266 <= 1
 0 <= x267 <= 1
 0 <= x268 <= 1
 0 <= x269 <= 1
 0 <= x270 <= 1
 0 <= x271 <= 1
 0 <= x272 <= 1
 0 <= x273 <= 1
 0 <= x274 <= 1
 0 <= x275 <= 1
 0 <= x276 <= 1
 0 <= x277 <= 1
 0 <= x278 <= 1
 0 <= x279 <= 1
 0 <= x280 <= 1
 0 <= x281 <= 1
 0 <= x282 <= 1
 0 <= x283 <= 1
 0 <= x284 <= 1
 0 <= x285 <= 1
 0 <= x286 <= 1
 0 <= x287 <= 1
 0 <= x288 <= 1
 0 <= x289 <= 1
 0 <= x290 <= 1
 0 <= x291 <= 1
 0 <= x292 <= 1
 0 <= x293 <= 1
 0 <= x294 <= 1
 0 <= x295 <= 1
 0 <= x296 <= 1
 0 <= x297 <= 1
 0 <= x298 <= 1
 0 <= x299 <= 1
 0 <= x300 <= 1
 0 <= x301 <= 1
 0 <= x302 <= 1
 0 <= x303 <= 1
 0 <= x304 <= 1
 0 <= x305 <= 1
 0 <= x306 <= 1
 0 <= x307 <= 1
 0 <= x308 <= 1
 0 <= x309 <= 1
 0 <= x310 <= 1
 0 <= x311 <= 1
 0 <= x312 <= 1
 0 <= x313 <= 1
 0 <= x314 <= 1
 0 <= x315 <= 1
 0 <= x316 <= 1
 0 <= x317 <= 1
 0 <= x318 <= 1
 0 <= x319 <= 1
 0 <= x320 <= 1
 0 <= x321 <= 1
 0 <= x322 <= 1
 0 <= x323 <= 1
 0 <= x324 <= 1
 0 <= x325 <= 1
 0 <= x326 <= 1
 0 <= x327 <= 1
 0 <= x328 <= 1
 0 <= x329 <= 1
 0 <= x330 <= 1
 0 <= x331 <= 1
 0 <= x332 <= 1
 0 <= x333 <= 1
 0 <= x334 <= 1
 0 <= x335 <= 1
 0 <= x336 <= 1
 0 <= x337 <= 1
 0 <= x338 <= 1
 0 <= x339 <= 1
 0 <= x340 <= 1
 0 <= x341 <= 1
 0 <= x342 <= 1
 0 <= x343 <= 1
 0 <= x344 <= 1
 0 <= x345 <= 1
 0 <= x346 <= 1
 0 <= x347 <= 1
 0 <= x348 <= 1
 0 <= x349 <= 1
 0 <= x350 <= 1
 0 <= x351 <= 1
 0 <= x352 <= 1
 0 <= x353 <= 1
 0 <= x354 <= 1
 0 <= x355 <= 1
 0 <= x356 <= 1
 0 <= x357 <= 1
 0 <= x358 <= 1
 0 <= x359 <= 1
 0 <= x360 <= 1
 0 <= x361 <= 1
 0 <= x362 <= 1
 0 <= x363 <= 1
 0 <= x364 <= 1
 0 <= x365 <= 1
 0 <= x366 <= 1
 0 <= x367 <= 1
 0 <= x368 <= 1
 0 <= x369 <= 1
 0 <= x370 <= 1
 0 <= x371 <= 1
 0 <= x372 <= 1
 0 <= x373 <= 1
 0 <= x374 <= 1
 0 <= x375 <= 1
 0 <= x376 <= 1
 0 <= x377 <= 1
 0 <= x378 <= 1
 0 <= x379 <= 1
 0 <= x380 <= 1
 0 <= x381 <= 1
 0 <= x382 <= 1
 0 <= x383 <= 1
 0 <= x384 <= 1
 0 <= x385 <= 1
 0 <= x386 <= 1
 0 <= x387 <= 1
 0 <= x388 <= 1
 0 <= x389 <= 1
 0 <= x390 <= 1
 0 <= x391 <= 1
 0 <= x392 <= 1
 0 <= x393 <= 1
 0 <= x394 <= 1
 0 <= x395 <= 1
 0 <= x396 <= 1
 0 <= x397 <= 1
 0 <= x398 <= 1
 0 <= x399 <= 1
 0 <= x400 <= 1
 0 <= x401 <= 1
 0 <= x402 <= 1
 0 <= x403 <= 1
 0 <= x404 <= 1
 0 <= x405 <= 1
 0 <= x406 <= 1
 0 <= x407 <= 1
 0 <= x408 <= 1
 0 <= x409 <= 1
 0 <= x410 <= 1
 0 <= x411 <= 1
 0 <= x412 <= 1
 0 <= x413 <= 1
 0 <= x414 <= 1
 0 <= x415 <= 1
 0 <= x416 <= 1
 0 <= x417 <= 1
 0 <= x418 <= 1
 0 <= x419 <= 1
 0 <= x420 <= 1
 0 <= x421 <= 1
 0 <= x422 <= 1
 0 <= x423 <= 1
 0 <= x424 <= 1
 0 <= x425 <= 1
 0 <= x426 <= 1
 0 <= x427 <= 1
 0 <= x428 <= 1
 0 <= x429 <= 1
 0 <= x430 <= 1
 0 <= x431 <= 1
 0 <= x432 <= 1
 0 <= x433 <= 1
 0 <= x434 <= 1
 0 <= x435 <= 1
 0 <= x436 <= 1
 0 <= x437 <= 1
 0 <= x438 <= 1
 0 <= x439 <= 1
 0 <= x440 <= 1
 0 <= x441 <= 1
 0 <= x442 <= 1
 0 <= x443 <= 1
 0 <= x444 <= 1
 0 <= x445 <= 1
 0 <= x446 <= 1
 0 <= x447 <= 1
 0 <= x448 <= 1
 0 <= x449 <= 1
 0 <= x450 <= 1
 0 <= x451 <= 1
 0 <= x452 <= 1
 0 <= x453 <= 1
 0 <= x454 <= 1
 0 <= x455 <= 1
 0 <= x456 <= 1
 0 <= x457 <= 1
 0 <= x458 <= 1
 0 <= x459 <= 1
 0 <= x460 <= 1
 0 <= x461 <= 1
 0 <= x462 <= 1
 0 <= x463 <= 1
 0 <= x464 <= 1
 0 <= x465 <= 1
 0 <= x466 <= 1
 0 <= x467 <= 1
 0 <= x468 <= 1
 0 <= x469 <= 1
 0 <= x470 <= 1
 0 <= x471 <= 1
 0 <= x472 <= 1
 0 <= x473 <= 1
 0 <= x474 <= 1
 0 <= x475 <= 1
 0 <= x476 <= 1
 0 <= x477 <= 1
 0 <= x478 <= 1
 0 <= x479 <= 1
 0 <= x480 <= 1
 0 <= x481 <= 1
 0 <= x482 <= 1
 0 <= x483 <= 1
 0 <= x484 <= 1
 0 <= x485 <= 1
 0 <= x486 <= 1
 0 <= x487 <= 1
 0 <= x488 <= 1
 0 <= x489 <= 1
 0 <= x490 <= 1
 0 <= x491 <= 1
 0 <= x492 <= 1
 0 <= x493 <= 1
 0 <= x494 <= 1
 0 <= x495 <= 1
 0 <= x496 <= 1
 0 <= x497 <= 1
 0 <= x498 <= 1
 0 <= x499 <= 1
 0 <= x500 <= 1
 0 <= x501 <= 1
 0 <= x502 <= 1
 0 <= x503 <= 1
 0 <= x504 <= 1
 0 <= x505 <= 1
 0 <= x506 <= 1
 0 <= x507 <= 1
 0 <= x508 <= 1
 0 <= x509 <= 1
 0 <= x510 <= 1
 0 <= x511 <= 1
 0 <= x512 <= 1
 0 <= x513 <= 1
 0 <= x514 <= 1
 0 <= x515 <= 1
 0 <= x516 <= 1
 0 <= x517 <= 1
 0 <= x518 <= 1
 0 <= x519 <= 1
 0 <= x520 <= 1
 0 <= x521 <= 1
 0 <= x522 <= 1
 0 <= x523 <= 1
 0 <= x524 <= 1
 0 <= x525 <= 1
 0 <= x526 <= 1
 0 <= x527 <= 1
 0 <= x528 <= 1
 0 <= x529 <= 1
 0 <= x530 <= 1
 0 <= x531 <= 1
 0 <= x532 <= 1
 0 <= x533 <= 1
 0 <= x534 <= 1
 0 <= x535 <= 1
 0 <= x536 <= 1
 0 <= x537 <= 1
 0 <= x538 <= 1
 0 <= x539 <= 1
 0 <= x540 <= 1
 0 <= x541 <= 1
 0 <= x542 <= 1
 0 <= x543 <= 1
 0 <= x544 <= 1
 0 <= x545 <= 1
 0 <= x546 <= 1
 0 <= x547 <= 1
 0 <= x548 <= 1
 0 <= x549 <= 1
 0 <= x550 <= 1
 0 <= x551 <= 1
 0 <= x552 <= 1
 0 <= x553 <= 1
 0 <= x554 <= 1
 0 <= x555 <= 1
 0 <= x556 <= 1
 0 <= x557 <= 1
 0 <= x558 <= 1
 0 <= x559 <= 1
 0 <= x560 <= 1
 0 <= x561 <= 1
 0 <= x562 <= 1
 0 <= x563 <= 1
 0 <= x564 <= 1
 0 <= x565 <= 1
 0 <= x566 <= 1
 0 <= x567 <= 1
 0 <= x568 <= 1
 0 <= x569 <= 1
 0 <= x570 <= 1
 0 <= x571 <= 1
 0 <= x572 <= 1
 0 <= x573 <= 1
 0 <= x574 <= 1
 0 <= x575 <= 1
 0 <= x576 <= 1
 0 <= x577 <= 1
 0 <= x578 <= 1
 0 <= x579 <= 1
 0 <= x580 <= 1
 0 <= x581 <= 1
 0 <= x582 <= 1
 0 <= x583 <= 1
 0 <= x584 <= 1
 0 <= x585 <= 1
 0 <= x586 <= 1
 0 <= x587 <= 1
 0 <= x588 <= 1
 0 <= x589 <= 1
 0 <= x590 <= 1
 0 <= x591 <= 1
 0 <= x592 <= 1
 0 <= x593 <= 1
 0 <= x594 <= 1
 0 <= x595 <= 1
 0 <= x596 <= 1
 0 <= x597 <= 1
 0 <= x598 <= 1
 0 <= x599 <= 1
 0 <= x600 <= 1
 0 <= x601 <= 1
 0 <= x602 <= 1
 0 <= x603 <= 1
 0 <= x604 <= 1
 0 <= x605 <= 1
 0 <= x606 <= 1
 0 <= x607 <= 1
 0 <= x608 <= 1
 0 <= x609 <= 1
 0 <= x610 <= 1
 0 <= x611 <= 1
 0 <= x612 <= 1
 0 <= x613 <= 1
 0 <= x614 <= 1
 0 <= x615 <= 1
 0 <= x616 <= 1
 0 <= x617 <= 1
 0 <= x618 <= 1
 0 <= x619 <= 1
 0 <= x620 <= 1
 0 <= x621 <= 1
 0 <= x622 <= 1
 0 <= x623 <= 1
 0 <= x624 <= 1
 0 <= x625 <= 1
 0 <= x626 <= 1
 0 <= x627 <= 1
 0 <= x628 <= 1
 0 <= x629 <= 1
 0 <= x630 <= 1
 0 <= x631 <= 1
 0 <= x632 <= 1
 0 <= x633 <= 1
 0 <= x634 <= 1
 0 <= x635 <= 1
 0 <= x636 <= 1
 0 <= x637 <= 1
 0 <= x638 <= 1
 0 <= x639 <= 1
 0 <= x640 <= 1
 0 <= x641 <= 1
 0 <= x642 <= 1
 0 <= x643 <= 1
 0 <= x644 <= 1
 0 <= x645 <= 1
 0 <= x646 <= 1
 0 <= x647 <= 1
 0 <= x648 <= 1
 0 <= x649 <= 1
 0 <= x650 <= 1
 0 <= x651 <= 1
 0 <= x652 <= 1
 0 <= x653 <= 1
 0 <= x654 <= 1
 0 <= x655 <= 1
 0 <= x656 <= 1
 0 <= x657 <= 1
 0 <= x658 <= 1
 0 <= x659 <= 1
 0 <= x660 <= 1
Binaries
 x601  x602  x603  x604  x605  x606  x607  x608  x609  x610  x611  x612  x613 
 x614  x615  x616  x617  x618  x619  x620  x621  x622  x623  x624  x625  x626 
 x627  x628  x629  x630  x631  x632  x633  x634  x635  x636  x637  x638  x639 
 x640  x641  x642  x643  x644  x645  x646  x647  x648  x649  x650  x651  x652 
 x653  x654  x655  x656  x657  x658  x659  x660 
End
